
Cover cuts applied:  7
Implied bound cuts applied:  1
Flow cuts applied:  37
Mixed integer rounding cuts applied:  38
Zero-half cuts applied:  10
Gomory fractional cuts applied:  1

Root node processing (before b&c):
  Real time             =    0.19 sec. (142.99 ticks)
Parallel b&c, 4 threads:
  Real time             =    0.02 sec. (18.54 ticks)
  Sync time (average)   =    0.01 sec.
  Wait time (average)   =    0.00 sec.
                          ------------
Total (root+branch&cut) =    0.21 sec. (161.54 ticks)
Version identifier: 12.10.0.0 | 2019-11-26 | 843d4de
CPXPARAM_MIP_Interval                            10
CPXPARAM_MIP_Tolerances_AbsMIPGap                0.98999999999999999
Tried aggregator 2 times.
MIP Presolve eliminated 8300 rows and 5465 columns.
MIP Presolve modified 1 coefficients.
Aggregator did 94 substitutions.
Reduced MIP has 335 rows, 327 columns, and 1198 nonzeros.
Reduced MIP has 143 binaries, 184 generals, 0 SOSs, and 0 indicators.
Presolve time = 0.01 sec. (6.92 ticks)
Probing fixed 0 vars, tightened 7 bounds.
Probing changed sense of 4 constraints.
Probing time = 0.00 sec. (0.07 ticks)
Tried aggregator 1 time.
Detecting symmetries...
MIP Presolve eliminated 7 rows and 6 columns.
MIP Presolve modified 9 coefficients.
Reduced MIP has 328 rows, 321 columns, and 1173 nonzeros.
Reduced MIP has 139 binaries, 182 generals, 0 SOSs, and 0 indicators.
Presolve time = 0.00 sec. (0.84 ticks)
Probing time = 0.00 sec. (0.06 ticks)
Clique table members: 12.
MIP emphasis: balance optimality and feasibility.
MIP search method: dynamic search.
Parallel mode: deterministic, using up to 4 threads.
Root relaxation solution time = 0.01 sec. (6.17 ticks)

        Nodes                                         Cuts/
   Node  Left     Objective  IInf  Best Integer    Best Bound    ItCnt     Gap

      0     0       35.3333    62                     35.3333      512         
      0     0       35.3333    62                    Cuts: 37      595         
      0     0       35.3333    62                    Cuts: 39      695         
      0     0       35.3333    62                   Covers: 2      774         
      0     0       35.3333    62                    Cuts: 29      819         
*     0+    0                           30.0000       35.3333            17.78%
Detecting symmetries...
      0     2       35.3333    24       30.0000       35.3280      819   17.76%
Elapsed time = 0.08 sec. (54.49 ticks, tree = 0.02 MB, solutions = 1)
*     4+    2                           33.0000       35.3280             7.05%
     10     5       35.0632    89       33.0000       35.3280     1237    7.05%
     20    13       34.0000    90       33.0000       35.3138     2394    7.01%
     30    27       34.5782    60       33.0000       35.3138     3247    7.01%
     40    29       34.6154    62       33.0000       35.3138     3793    7.01%
     50    38       34.6154    52       33.0000       35.3138     4893    7.01%
     60    37       35.0000    17       33.0000       35.3138     4713    7.01%
     70    48       34.0000    24       33.0000       35.3138     5573    7.01%
     80    44        cutoff             33.0000       35.3138     5337    7.01%
     90    53       34.7619    27       33.0000       35.3138     6367    7.01%
    100    54       34.7091    96       33.0000       35.3121     6638    7.01%
Elapsed time = 0.13 sec. (91.82 ticks, tree = 0.03 MB, solutions = 2)
    110    75       34.2103    56       33.0000       35.2888     8438    6.94%
    120    66       34.8905    68       33.0000       35.1938     7740    6.65%
    130    73        cutoff             33.0000       35.1938     8732    6.65%
    140    75       34.4250    62       33.0000       35.1580     8823    6.54%
    150    84       34.3714    93       33.0000       35.1580     9617    6.54%
    160    98       34.4754    53       33.0000       35.1580    10960    6.54%
    170   100       34.7974    57       33.0000       35.1580    11027    6.54%
    180   103       34.4306    93       33.0000       35.1580    11319    6.54%
    190   105       34.2500    18       33.0000       35.1580    11172    6.54%
    200   104       34.4996    36       33.0000       35.1580    11934    6.54%
Elapsed time = 0.15 sec. (116.23 ticks, tree = 0.05 MB, solutions = 2)
    210   110       34.2623    72       33.0000       35.0879    12076    6.33%
    220   112    infeasible             33.0000       35.0385    12141    6.18%
    230   115       34.0634    80       33.0000       35.0385    12332    6.18%
    240   133       34.0000     2       33.0000       35.0385    13529    6.18%
    250   122       34.3901   101       33.0000       35.0385    13289    6.18%
    260   134       34.5608   132       33.0000       35.0385    13874    6.18%
    270   134       34.5056    48       33.0000       35.0385    14287    6.18%
    280   140        cutoff             33.0000       34.8377    14931    5.57%
    290   138        cutoff             33.0000       34.8111    15054    5.49%
    300   137        cutoff             33.0000       34.7875    15224    5.42%
Elapsed time = 0.19 sec. (141.51 ticks, tree = 0.08 MB, solutions = 2)
    310   138       34.3456    35       33.0000       34.7875    15363    5.42%
    320   159        cutoff             33.0000       34.7453    17626    5.29%
    330   166       34.4842   155       33.0000       34.7143    17654    5.19%
*   340   139      integral     0       34.0000       34.7000    19313    2.06%
    340   138       34.0000     0       34.0000       34.7000    19313    2.06%
    350   161        cutoff             34.0000       34.7000    18244    2.06%
    360   154        cutoff             34.0000       34.7000    18981    2.06%
the number of Nodes = 364
